c defined variables: 4 9 13 18 22 27 31 35 36 37 38 42 46 51 55 59 64 68 72 73 74 78 82 86 87 88 89 93 97 101 105 109 113 114 118 119 120 124 128 132 133 134 138 142 146 147 148 149 153 157 161 162 163 164 168 172 173 174 178 182 186 187 188 192 196 197 198 202 206 207 208 212 216 220 224 228 232 236 237 238 239 243 252 256 260 264 268 272 273 274 278 282 286 287 288 289 293 297 301 305 309 313 314 318 319 320 324 328 332 333 334 338 342 346 347 348 349 353 357 361 362 363 364 368 372 373 374 378 382 386 387 388 392 396 397 398 402 406 407 408 411 412 414 415 416 417 420 421 422 423 426 427 428 429 432 433 436 437 440 441 444 445 446 447 448 449 452 
p cnf 1508 1719
a 360 356 385 371 391 401 405 395 58 62 77 67 81 54 49 92 34 96 304 327 271 263 259 267 337 300 341 285 21 25 45 16 41 30 12 1 6 377 367 323 312 308 317 331 345 381 352 242 246 219 205 215 211 201 185 195 191 50 7 26 2 3 17 63 8 227 235 231 223 292 281 296 251 255 277 123 104 127 137 100 141 85 71 108 112 152 177 167 156 117 131 145 181 160 171 0
e 5 10 11 14 15 19 20 23 24 28 29 32 33 39 40 43 44 47 48 52 53 56 57 60 61 65 66 69 70 75 76 79 80 83 84 90 91 94 95 98 99 102 103 106 107 110 111 115 116 121 122 125 126 129 130 135 136 139 140 143 144 150 151 154 155 158 159 165 166 169 170 175 176 179 180 183 184 189 190 193 194 199 200 203 204 209 210 213 214 217 218 221 222 225 226 229 230 233 234 240 241 244 245 248 249 250 253 254 257 258 261 262 265 266 269 270 275 276 279 280 283 284 290 291 294 295 298 299 302 303 306 307 310 311 315 316 321 322 325 326 329 330 335 336 339 340 343 344 350 351 354 355 358 359 365 366 369 370 375 376 379 380 383 384 389 390 393 394 399 400 403 404 409 410 413 418 419 424 425 430 431 434 435 438 439 442 443 450 451 4 9 13 18 22 27 31 35 36 37 38 42 46 51 55 59 64 68 72 73 74 78 82 86 87 88 89 93 97 101 105 109 113 114 118 119 120 124 128 132 133 134 138 142 146 147 148 149 153 157 161 162 163 164 168 172 173 174 178 182 186 187 188 192 196 197 198 202 206 207 208 212 216 220 224 228 232 236 237 238 239 243 252 256 260 264 268 272 273 274 278 282 286 287 288 289 293 297 301 305 309 313 314 318 319 320 324 328 332 333 334 338 342 346 347 348 349 353 357 361 362 363 364 368 372 373 374 378 382 386 387 388 392 396 397 398 402 406 407 408 411 412 414 415 416 417 420 421 422 423 426 427 428 429 432 433 436 437 440 441 444 445 446 447 448 449 452 1343 1344 1345 1346 1347 1348 1349 1350 1351 1352 1353 1354 1355 1356 1357 1358 1359 1360 1361 1362 1363 1364 1365 1366 1367 1368 1369 1370 1371 1372 1373 1374 1375 1376 1377 1378 1379 1380 1381 1382 1383 1384 1385 1386 1387 1388 1389 1390 1391 1392 1393 1394 1395 1396 1397 1398 1399 1400 1401 1402 1403 1404 1405 1406 1407 1408 1409 1410 1411 1412 1413 1414 1415 1416 1417 1418 1419 1420 1421 1422 1423 1424 1425 1426 1427 1428 1429 1430 1431 1432 1433 1434 1435 1436 1437 1438 1439 1440 1441 1442 1443 1444 1445 1446 1447 1448 1449 1450 1451 1452 1453 1454 1455 1456 1457 1458 1459 1460 1461 1462 1463 1464 1465 1466 1467 1468 1469 1470 1471 1472 1473 1474 1475 1476 1477 1478 1479 1480 1481 1482 1483 1484 1485 1486 1487 1488 1489 1490 1491 1492 1493 1494 1495 1496 1497 1498 1499 1500 1501 1502 1503 1504 1505 1506 1507 1508 0
d 247 2 17 0
1344 -4 0
-1344 4 0
1345 -9 0
-1345 9 0
-1348 -13 0
1348 13 0
1349 -18 0
-1349 18 0
1350 -22 0
-1350 22 0
1351 -27 0
-1351 27 0
-1354 -31 0
1354 31 0
-1343 -35 0
1343 35 0
-1343 -36 0
1343 36 0
1346 -37 0
-1346 37 0
-1355 -38 0
1355 38 0
-1358 -42 0
1358 42 0
-1361 -46 0
1361 46 0
1362 -51 0
-1362 51 0
1363 -55 0
-1363 55 0
1364 -59 0
-1364 59 0
1365 -64 0
-1365 64 0
-1368 -68 0
1368 68 0
1356 -72 0
-1356 72 0
1352 -73 0
-1352 73 0
-1369 -74 0
1369 74 0
-1372 -78 0
1372 78 0
-1375 -82 0
1375 82 0
-1343 -86 0
1343 86 0
-1343 -87 0
1343 87 0
1359 -88 0
-1359 88 0
1376 -89 0
-1376 89 0
-1379 -93 0
1379 93 0
-1382 -97 0
1382 97 0
1383 -101 0
-1383 101 0
1384 -105 0
-1384 105 0
1385 -109 0
-1385 109 0
-1343 -113 0
1343 113 0
1386 -114 0
-1386 114 0
1370 -118 0
-1370 118 0
1366 -119 0
-1366 119 0
-1387 -120 0
1387 120 0
-1390 -124 0
1390 124 0
-1393 -128 0
1393 128 0
1377 -132 0
-1377 132 0
1373 -133 0
-1373 133 0
-1394 -134 0
1394 134 0
-1397 -138 0
1397 138 0
-1400 -142 0
1400 142 0
-1343 -146 0
1343 146 0
-1343 -147 0
1343 147 0
1380 -148 0
-1380 148 0
1401 -149 0
-1401 149 0
1402 -153 0
-1402 153 0
1403 -157 0
-1403 157 0
1388 -161 0
-1388 161 0
-1343 -162 0
1343 162 0
-1343 -163 0
1343 163 0
1404 -164 0
-1404 164 0
-1407 -168 0
1407 168 0
1395 -172 0
-1395 172 0
1391 -173 0
-1391 173 0
-1408 -174 0
1408 174 0
-1411 -178 0
1411 178 0
-1414 -182 0
1414 182 0
1415 -186 0
-1415 186 0
1398 -187 0
-1398 187 0
-1416 -188 0
1416 188 0
1417 -192 0
-1417 192 0
1409 -196 0
-1409 196 0
1405 -197 0
-1405 197 0
-1418 -198 0
1418 198 0
-1421 -202 0
1421 202 0
1422 -206 0
-1422 206 0
1412 -207 0
-1412 207 0
-1423 -208 0
1423 208 0
1344 -212 0
-1344 212 0
1345 -216 0
-1345 216 0
-1426 -220 0
1426 220 0
1350 -224 0
-1350 224 0
1351 -228 0
-1351 228 0
-1429 -232 0
1429 232 0
-1343 -236 0
1343 236 0
-1343 -237 0
1343 237 0
1424 -238 0
-1424 238 0
1430 -239 0
-1430 239 0
-1433 -243 0
1433 243 0
1362 -252 0
-1362 252 0
1363 -256 0
-1363 256 0
1364 -260 0
-1364 260 0
1365 -264 0
-1365 264 0
-1436 -268 0
1436 268 0
1431 -272 0
-1431 272 0
1427 -273 0
-1427 273 0
-1437 -274 0
1437 274 0
-1440 -278 0
1440 278 0
-1443 -282 0
1443 282 0
-1343 -286 0
1343 286 0
-1343 -287 0
1343 287 0
1444 -288 0
-1444 288 0
1445 -289 0
-1445 289 0
-1448 -293 0
1448 293 0
-1451 -297 0
1451 297 0
1383 -301 0
-1383 301 0
1384 -305 0
-1384 305 0
1385 -309 0
-1385 309 0
-1343 -313 0
1343 313 0
1452 -314 0
-1452 314 0
1438 -318 0
-1438 318 0
1434 -319 0
-1434 319 0
-1453 -320 0
1453 320 0
-1456 -324 0
1456 324 0
-1459 -328 0
1459 328 0
1446 -332 0
-1446 332 0
1441 -333 0
-1441 333 0
-1460 -334 0
1460 334 0
-1463 -338 0
1463 338 0
-1464 -342 0
1464 342 0
-1343 -346 0
1343 346 0
-1343 -347 0
1343 347 0
1449 -348 0
-1449 348 0
1465 -349 0
-1465 349 0
1402 -353 0
-1402 353 0
1403 -357 0
-1403 357 0
1454 -361 0
-1454 361 0
-1343 -362 0
1343 362 0
-1343 -363 0
1343 363 0
1466 -364 0
-1466 364 0
-1469 -368 0
1469 368 0
1461 -372 0
-1461 372 0
1457 -373 0
-1457 373 0
-1470 -374 0
1470 374 0
-1473 -378 0
1473 378 0
-1476 -382 0
1476 382 0
1477 -386 0
-1477 386 0
1478 -387 0
-1478 387 0
-1479 -388 0
1479 388 0
1417 -392 0
-1417 392 0
1471 -396 0
-1471 396 0
1467 -397 0
-1467 397 0
-1480 -398 0
1480 398 0
-1483 -402 0
1483 402 0
1484 -406 0
-1484 406 0
1474 -407 0
-1474 407 0
-1485 -408 0
1485 408 0
1486 -411 0
-1486 411 0
1486 -412 0
-1486 412 0
-1343 -414 0
1343 414 0
1487 -415 0
-1487 415 0
-1343 -416 0
1343 416 0
1488 -417 0
-1488 417 0
-1343 -420 0
1343 420 0
1489 -421 0
-1489 421 0
-1343 -422 0
1343 422 0
1490 -423 0
-1490 423 0
-1343 -426 0
1343 426 0
1491 -427 0
-1491 427 0
-1343 -428 0
1343 428 0
1492 -429 0
-1492 429 0
-1494 -432 0
1494 432 0
-1496 -433 0
1496 433 0
-1498 -436 0
1498 436 0
-1500 -437 0
1500 437 0
-1503 -440 0
1503 440 0
-1506 -441 0
1506 441 0
1501 -444 0
-1501 444 0
1481 -445 0
-1481 445 0
-1507 -446 0
1507 446 0
1504 -447 0
-1504 447 0
1419 -448 0
-1419 448 0
-1508 -449 0
1508 449 0
1343 -452 0
-1343 452 0
452 0
-452 410 451 0
-410 404 -409 0
-404 400 -403 0
-400 394 -399 0
-394 390 -393 0
-390 384 -389 0
-384 380 -383 0
-380 376 -379 0
-376 370 -375 0
-370 366 -369 0
-366 359 -365 0
-359 355 -358 0
-355 351 -354 0
-351 344 -350 0
-344 340 -343 0
-340 336 -339 0
-336 330 -335 0
-330 326 -329 0
-326 322 -325 0
-322 316 -321 0
-316 311 -315 0
-311 307 -310 0
-307 303 -306 0
-303 299 -302 0
-299 295 -298 0
-295 291 -294 0
-291 284 -290 0
-284 280 -283 0
-280 276 -279 0
-276 270 -275 0
-270 266 -269 0
-266 262 -265 0
-262 258 -261 0
-258 254 -257 0
-254 250 -253 0
-250 245 -249 0
-245 241 -244 0
-241 234 -240 0
-234 230 -233 0
-230 226 -229 0
-226 222 -225 0
-222 218 -221 0
-218 214 -217 0
-214 210 -213 0
-210 204 -209 0
-204 200 -203 0
-200 194 -199 0
-194 190 -193 0
-190 184 -189 0
-184 180 -183 0
-180 176 -179 0
-176 170 -175 0
-170 166 -169 0
-166 159 -165 0
-159 155 -158 0
-155 151 -154 0
-151 144 -150 0
-144 140 -143 0
-140 136 -139 0
-136 130 -135 0
-130 126 -129 0
-126 122 -125 0
-122 116 -121 0
-116 111 -115 0
-111 107 -110 0
-107 103 -106 0
-103 99 -102 0
-99 95 -98 0
-95 91 -94 0
-91 84 -90 0
-84 80 -83 0
-80 76 -79 0
-76 70 -75 0
-70 66 -69 0
-66 61 -65 0
-61 57 -60 0
-57 53 -56 0
-53 48 -52 0
-48 44 -47 0
-44 40 -43 0
-40 33 -39 0
-33 29 -32 0
-29 24 -28 0
-24 20 -23 0
-20 15 -19 0
-15 11 -14 0
-11 -5 -10 0
1 4 5 0
-1 -4 5 0
-2 -3 4 0
-4 2 0
-4 3 0
6 9 10 0
-6 -9 10 0
-7 -8 9 0
-9 7 0
-9 8 0
12 -13 14 0
-12 13 14 0
-13 -1 6 0
-13 1 -6 0
1 6 13 0
-1 -6 13 0
16 18 19 0
-16 -18 19 0
-2 -17 18 0
-18 2 0
-18 17 0
21 22 23 0
-21 -22 23 0
-7 -3 22 0
-22 7 0
-22 3 0
25 27 28 0
-25 -27 28 0
-26 -8 27 0
-27 26 0
-27 8 0
30 -31 32 0
-30 31 32 0
-31 -21 25 0
-31 21 -25 0
21 25 31 0
-21 -25 31 0
34 38 39 0
-34 -38 39 0
-36 37 38 0
36 -37 38 0
-36 -37 38 0
-12 -35 36 0
-2 2 35 0
-1 -6 37 0
-38 36 37 0
-36 12 0
-36 35 0
-35 2 0
-35 -2 0
-37 1 0
-37 6 0
41 -42 43 0
-41 42 43 0
-42 -30 34 0
-42 30 -34 0
30 34 42 0
-30 -34 42 0
45 -46 47 0
-45 46 47 0
-46 -16 41 0
-46 16 -41 0
16 41 46 0
-16 -41 46 0
49 51 52 0
-49 -51 52 0
-2 -50 51 0
-51 2 0
-51 50 0
54 55 56 0
-54 -55 56 0
-7 -17 55 0
-55 7 0
-55 17 0
58 59 60 0
-58 -59 60 0
-26 -3 59 0
-59 26 0
-59 3 0
62 64 65 0
-62 -64 65 0
-63 -8 64 0
-64 63 0
-64 8 0
67 -68 69 0
-67 68 69 0
-68 -58 62 0
-68 58 -62 0
58 62 68 0
-58 -62 68 0
71 74 75 0
-71 -74 75 0
-72 73 74 0
72 -73 74 0
-72 -73 74 0
-30 -34 72 0
-21 -25 73 0
-74 72 73 0
-72 30 0
-72 34 0
-73 21 0
-73 25 0
77 -78 79 0
-77 78 79 0
-78 -67 71 0
-78 67 -71 0
67 71 78 0
-67 -71 78 0
81 -82 83 0
-81 82 83 0
-82 -54 77 0
-82 54 -77 0
54 77 82 0
-54 -77 82 0
85 89 90 0
-85 -89 90 0
-87 88 89 0
87 -88 89 0
-87 -88 89 0
-45 -86 87 0
-2 2 86 0
-16 -41 88 0
-89 87 88 0
-87 45 0
-87 86 0
-86 2 0
-86 -2 0
-88 16 0
-88 41 0
92 -93 94 0
-92 93 94 0
-93 -81 85 0
-93 81 -85 0
81 85 93 0
-81 -85 93 0
96 -97 98 0
-96 97 98 0
-97 -49 92 0
-97 49 -92 0
49 92 97 0
-49 -92 97 0
100 101 102 0
-100 -101 102 0
-7 -50 101 0
-101 7 0
-101 50 0
104 105 106 0
-104 -105 106 0
-26 -17 105 0
-105 26 0
-105 17 0
108 109 110 0
-108 -109 110 0
-63 -3 109 0
-109 63 0
-109 3 0
112 -114 115 0
-112 114 115 0
-114 -108 113 0
-114 108 -113 0
-113 2 0
-113 -2 0
-2 2 113 0
108 113 114 0
-108 -113 114 0
-2 2 113 0
-113 2 0
-113 -2 0
117 120 121 0
-117 -120 121 0
-118 119 120 0
118 -119 120 0
-118 -119 120 0
-67 -71 118 0
-58 -62 119 0
-120 118 119 0
-118 67 0
-118 71 0
-119 58 0
-119 62 0
123 -124 125 0
-123 124 125 0
-124 -112 117 0
-124 112 -117 0
112 117 124 0
-112 -117 124 0
127 -128 129 0
-127 128 129 0
-128 -104 123 0
-128 104 -123 0
104 123 128 0
-104 -123 128 0
131 134 135 0
-131 -134 135 0
-132 133 134 0
132 -133 134 0
-132 -133 134 0
-81 -85 132 0
-54 -77 133 0
-134 132 133 0
-132 81 0
-132 85 0
-133 54 0
-133 77 0
137 -138 139 0
-137 138 139 0
-138 -127 131 0
-138 127 -131 0
127 131 138 0
-127 -131 138 0
141 -142 143 0
-141 142 143 0
-142 -100 137 0
-142 100 -137 0
100 137 142 0
-100 -137 142 0
145 149 150 0
-145 -149 150 0
-147 148 149 0
147 -148 149 0
-147 -148 149 0
-96 -146 147 0
-2 2 146 0
-49 -92 148 0
-149 147 148 0
-147 96 0
-147 146 0
-146 2 0
-146 -2 0
-148 49 0
-148 92 0
152 153 154 0
-152 -153 154 0
-26 -50 153 0
-153 26 0
-153 50 0
156 157 158 0
-156 -157 158 0
-63 -17 157 0
-157 63 0
-157 17 0
160 164 165 0
-160 -164 165 0
-161 163 164 0
161 -163 164 0
-161 -163 164 0
-112 -117 161 0
-108 -162 163 0
-2 2 162 0
-164 161 163 0
-161 112 0
-161 117 0
-163 108 0
-163 162 0
-162 2 0
-162 -2 0
167 -168 169 0
-167 168 169 0
-168 -156 160 0
-168 156 -160 0
156 160 168 0
-156 -160 168 0
171 174 175 0
-171 -174 175 0
-172 173 174 0
172 -173 174 0
-172 -173 174 0
-127 -131 172 0
-104 -123 173 0
-174 172 173 0
-172 127 0
-172 131 0
-173 104 0
-173 123 0
177 -178 179 0
-177 178 179 0
-178 -167 171 0
-178 167 -171 0
167 171 178 0
-167 -171 178 0
181 -182 183 0
-181 182 183 0
-182 -152 177 0
-182 152 -177 0
152 177 182 0
-152 -177 182 0
185 188 189 0
-185 -188 189 0
-186 187 188 0
186 -187 188 0
-186 -187 188 0
-141 -145 186 0
-100 -137 187 0
-188 186 187 0
-186 141 0
-186 145 0
-187 100 0
-187 137 0
191 192 193 0
-191 -192 193 0
-63 -50 192 0
-192 63 0
-192 50 0
195 198 199 0
-195 -198 199 0
-196 197 198 0
196 -197 198 0
-196 -197 198 0
-167 -171 196 0
-156 -160 197 0
-198 196 197 0
-196 167 0
-196 171 0
-197 156 0
-197 160 0
201 -202 203 0
-201 202 203 0
-202 -191 195 0
-202 191 -195 0
191 195 202 0
-191 -195 202 0
205 208 209 0
-205 -208 209 0
-206 207 208 0
206 -207 208 0
-206 -207 208 0
-181 -185 206 0
-152 -177 207 0
-208 206 207 0
-206 181 0
-206 185 0
-207 152 0
-207 177 0
211 212 213 0
-211 -212 213 0
-2 -3 212 0
-212 2 0
-212 3 0
215 216 217 0
-215 -216 217 0
-7 -8 216 0
-216 7 0
-216 8 0
219 -220 221 0
-219 220 221 0
-220 -211 215 0
-220 211 -215 0
211 215 220 0
-211 -215 220 0
223 224 225 0
-223 -224 225 0
-7 -3 224 0
-224 7 0
-224 3 0
227 228 229 0
-227 -228 229 0
-26 -8 228 0
-228 26 0
-228 8 0
231 -232 233 0
-231 232 233 0
-232 -223 227 0
-232 223 -227 0
223 227 232 0
-223 -227 232 0
235 239 240 0
-235 -239 240 0
-237 238 239 0
237 -238 239 0
-237 -238 239 0
-219 -236 237 0
-2 2 236 0
-211 -215 238 0
-239 237 238 0
-237 219 0
-237 236 0
-236 2 0
-236 -2 0
-238 211 0
-238 215 0
242 -243 244 0
-242 243 244 0
-243 -231 235 0
-243 231 -235 0
231 235 243 0
-231 -235 243 0
246 -248 249 0
-246 248 249 0
-248 -247 242 0
-248 247 -242 0
247 242 248 0
-247 -242 248 0
251 252 253 0
-251 -252 253 0
-2 -50 252 0
-252 2 0
-252 50 0
255 256 257 0
-255 -256 257 0
-7 -17 256 0
-256 7 0
-256 17 0
259 260 261 0
-259 -260 261 0
-26 -3 260 0
-260 26 0
-260 3 0
263 264 265 0
-263 -264 265 0
-63 -8 264 0
-264 63 0
-264 8 0
267 -268 269 0
-267 268 269 0
-268 -259 263 0
-268 259 -263 0
259 263 268 0
-259 -263 268 0
271 274 275 0
-271 -274 275 0
-272 273 274 0
272 -273 274 0
-272 -273 274 0
-231 -235 272 0
-223 -227 273 0
-274 272 273 0
-272 231 0
-272 235 0
-273 223 0
-273 227 0
277 -278 279 0
-277 278 279 0
-278 -267 271 0
-278 267 -271 0
267 271 278 0
-267 -271 278 0
281 -282 283 0
-281 282 283 0
-282 -255 277 0
-282 255 -277 0
255 277 282 0
-255 -277 282 0
285 289 290 0
-285 -289 290 0
-287 288 289 0
287 -288 289 0
-287 -288 289 0
-246 -286 287 0
-2 2 286 0
-247 -242 288 0
-289 287 288 0
-287 246 0
-287 286 0
-286 2 0
-286 -2 0
-288 247 0
-288 242 0
292 -293 294 0
-292 293 294 0
-293 -281 285 0
-293 281 -285 0
281 285 293 0
-281 -285 293 0
296 -297 298 0
-296 297 298 0
-297 -251 292 0
-297 251 -292 0
251 292 297 0
-251 -292 297 0
300 301 302 0
-300 -301 302 0
-7 -50 301 0
-301 7 0
-301 50 0
304 305 306 0
-304 -305 306 0
-26 -17 305 0
-305 26 0
-305 17 0
308 309 310 0
-308 -309 310 0
-63 -3 309 0
-309 63 0
-309 3 0
312 -314 315 0
-312 314 315 0
-314 -308 313 0
-314 308 -313 0
-313 2 0
-313 -2 0
-2 2 313 0
308 313 314 0
-308 -313 314 0
-2 2 313 0
-313 2 0
-313 -2 0
317 320 321 0
-317 -320 321 0
-318 319 320 0
318 -319 320 0
-318 -319 320 0
-267 -271 318 0
-259 -263 319 0
-320 318 319 0
-318 267 0
-318 271 0
-319 259 0
-319 263 0
323 -324 325 0
-323 324 325 0
-324 -312 317 0
-324 312 -317 0
312 317 324 0
-312 -317 324 0
327 -328 329 0
-327 328 329 0
-328 -304 323 0
-328 304 -323 0
304 323 328 0
-304 -323 328 0
331 334 335 0
-331 -334 335 0
-332 333 334 0
332 -333 334 0
-332 -333 334 0
-281 -285 332 0
-255 -277 333 0
-334 332 333 0
-332 281 0
-332 285 0
-333 255 0
-333 277 0
337 -338 339 0
-337 338 339 0
-338 -327 331 0
-338 327 -331 0
327 331 338 0
-327 -331 338 0
341 -342 343 0
-341 342 343 0
-342 300 337 0
-300 337 342 0
300 -337 342 0
-300 -337 342 0
345 349 350 0
-345 -349 350 0
-347 348 349 0
347 -348 349 0
-347 -348 349 0
-296 -346 347 0
-2 2 346 0
-251 -292 348 0
-349 347 348 0
-347 296 0
-347 346 0
-346 2 0
-346 -2 0
-348 251 0
-348 292 0
352 353 354 0
-352 -353 354 0
-26 -50 353 0
-353 26 0
-353 50 0
356 357 358 0
-356 -357 358 0
-63 -17 357 0
-357 63 0
-357 17 0
360 364 365 0
-360 -364 365 0
-361 363 364 0
361 -363 364 0
-361 -363 364 0
-312 -317 361 0
-308 -362 363 0
-2 2 362 0
-364 361 363 0
-361 312 0
-361 317 0
-363 308 0
-363 362 0
-362 2 0
-362 -2 0
367 -368 369 0
-367 368 369 0
-368 -356 360 0
-368 356 -360 0
356 360 368 0
-356 -360 368 0
371 374 375 0
-371 -374 375 0
-372 373 374 0
372 -373 374 0
-372 -373 374 0
-327 -331 372 0
-304 -323 373 0
-374 372 373 0
-372 327 0
-372 331 0
-373 304 0
-373 323 0
377 -378 379 0
-377 378 379 0
-378 -367 371 0
-378 367 -371 0
367 371 378 0
-367 -371 378 0
381 -382 383 0
-381 382 383 0
-382 -352 377 0
-382 352 -377 0
352 377 382 0
-352 -377 382 0
385 388 389 0
-385 -388 389 0
-386 387 388 0
386 -387 388 0
-386 -387 388 0
-341 -345 386 0
-300 -337 387 0
-388 386 387 0
-386 341 0
-386 345 0
-387 300 0
-387 337 0
391 392 393 0
-391 -392 393 0
-63 -50 392 0
-392 63 0
-392 50 0
395 398 399 0
-395 -398 399 0
-396 397 398 0
396 -397 398 0
-396 -397 398 0
-367 -371 396 0
-356 -360 397 0
-398 396 397 0
-396 367 0
-396 371 0
-397 356 0
-397 360 0
401 -402 403 0
-401 402 403 0
-402 -391 395 0
-402 391 -395 0
391 395 402 0
-391 -395 402 0
405 408 409 0
-405 -408 409 0
-406 407 408 0
406 -407 408 0
-406 -407 408 0
-381 -385 406 0
-352 -377 407 0
-408 406 407 0
-406 381 0
-406 385 0
-407 352 0
-407 377 0
-451 443 0
-451 450 0
-443 439 0
-443 442 0
-439 435 0
-439 438 0
-435 431 0
-435 434 0
-431 425 0
-431 430 0
-425 419 0
-425 424 0
-419 413 0
-419 418 0
-413 -411 412 0
-413 411 -412 0
-411 2 0
-411 8 0
-412 2 0
-412 8 0
-2 -8 411 0
-2 -8 412 0
-418 415 -417 0
-418 -415 417 0
219 414 415 0
-219 -414 415 0
-2 2 414 0
-414 2 0
-414 -2 0
12 416 417 0
-12 -416 417 0
-2 2 416 0
-416 2 0
-416 -2 0
-415 -219 414 0
-415 219 -414 0
-414 2 0
-414 -2 0
-2 2 414 0
-417 -12 416 0
-417 12 -416 0
-416 2 0
-416 -2 0
-2 2 416 0
-424 421 -423 0
-424 -421 423 0
246 420 421 0
-246 -420 421 0
-2 2 420 0
-420 2 0
-420 -2 0
45 422 423 0
-45 -422 423 0
-2 2 422 0
-422 2 0
-422 -2 0
-421 -246 420 0
-421 246 -420 0
-420 2 0
-420 -2 0
-2 2 420 0
-423 -45 422 0
-423 45 -422 0
-422 2 0
-422 -2 0
-2 2 422 0
-430 427 -429 0
-430 -427 429 0
296 426 427 0
-296 -426 427 0
-2 2 426 0
-426 2 0
-426 -2 0
96 428 429 0
-96 -428 429 0
-2 2 428 0
-428 2 0
-428 -2 0
-427 -296 426 0
-427 296 -426 0
-426 2 0
-426 -2 0
-2 2 426 0
-429 -96 428 0
-429 96 -428 0
-428 2 0
-428 -2 0
-2 2 428 0
-434 432 -433 0
-434 -432 433 0
341 345 432 0
-341 -345 432 0
141 145 433 0
-141 -145 433 0
-432 -341 345 0
-432 341 -345 0
-433 -141 145 0
-433 141 -145 0
-438 436 -437 0
-438 -436 437 0
381 385 436 0
-381 -385 436 0
181 185 437 0
-181 -185 437 0
-436 -381 385 0
-436 381 -385 0
-437 -181 185 0
-437 181 -185 0
-442 440 -441 0
-442 -440 441 0
401 405 440 0
-401 -405 440 0
201 205 441 0
-201 -205 441 0
-440 -401 405 0
-440 401 -405 0
-441 -201 205 0
-441 201 -205 0
-450 -446 449 0
-450 446 -449 0
-446 444 445 0
-444 401 0
-444 405 0
-445 391 0
-445 395 0
-449 447 448 0
-447 201 0
-447 205 0
-448 191 0
-448 195 0
-444 445 446 0
444 -445 446 0
-444 -445 446 0
-401 -405 444 0
-391 -395 445 0
-447 448 449 0
447 -448 449 0
-447 -448 449 0
-201 -205 447 0
-191 -195 448 0
1343 0
2 -1344 0
3 -1344 0
-2 -3 1344 0
7 -1345 0
8 -1345 0
-7 -8 1345 0
1 -1346 0
6 -1346 0
-1 -6 1346 0
-1 -1347 0
-6 -1347 0
1 6 1347 0
-1346 -1348 0
-1347 -1348 0
1346 1347 1348 0
2 -1349 0
17 -1349 0
-2 -17 1349 0
7 -1350 0
3 -1350 0
-7 -3 1350 0
26 -1351 0
8 -1351 0
-26 -8 1351 0
21 -1352 0
25 -1352 0
-21 -25 1352 0
-21 -1353 0
-25 -1353 0
21 25 1353 0
-1352 -1354 0
-1353 -1354 0
1352 1353 1354 0
-36 -1355 0
-37 -1355 0
36 37 1355 0
34 -1356 0
30 -1356 0
-34 -30 1356 0
-34 -1357 0
-30 -1357 0
34 30 1357 0
-1356 -1358 0
-1357 -1358 0
1356 1357 1358 0
16 -1359 0
41 -1359 0
-16 -41 1359 0
-16 -1360 0
-41 -1360 0
16 41 1360 0
-1359 -1361 0
-1360 -1361 0
1359 1360 1361 0
50 -1362 0
2 -1362 0
-50 -2 1362 0
7 -1363 0
17 -1363 0
-7 -17 1363 0
26 -1364 0
3 -1364 0
-26 -3 1364 0
63 -1365 0
8 -1365 0
-63 -8 1365 0
58 -1366 0
62 -1366 0
-58 -62 1366 0
-58 -1367 0
-62 -1367 0
58 62 1367 0
-1366 -1368 0
-1367 -1368 0
1366 1367 1368 0
-72 -1369 0
-73 -1369 0
72 73 1369 0
67 -1370 0
71 -1370 0
-67 -71 1370 0
-67 -1371 0
-71 -1371 0
67 71 1371 0
-1370 -1372 0
-1371 -1372 0
1370 1371 1372 0
77 -1373 0
54 -1373 0
-77 -54 1373 0
-77 -1374 0
-54 -1374 0
77 54 1374 0
-1373 -1375 0
-1374 -1375 0
1373 1374 1375 0
-87 -1376 0
88 -1376 0
87 -88 1376 0
81 -1377 0
85 -1377 0
-81 -85 1377 0
-81 -1378 0
-85 -1378 0
81 85 1378 0
-1377 -1379 0
-1378 -1379 0
1377 1378 1379 0
49 -1380 0
92 -1380 0
-49 -92 1380 0
-49 -1381 0
-92 -1381 0
49 92 1381 0
-1380 -1382 0
-1381 -1382 0
1380 1381 1382 0
50 -1383 0
7 -1383 0
-50 -7 1383 0
26 -1384 0
17 -1384 0
-26 -17 1384 0
3 -1385 0
63 -1385 0
-3 -63 1385 0
-108 -1386 0
-113 -1386 0
108 113 1386 0
-118 -1387 0
-119 -1387 0
118 119 1387 0
112 -1388 0
117 -1388 0
-112 -117 1388 0
-112 -1389 0
-117 -1389 0
112 117 1389 0
-1388 -1390 0
-1389 -1390 0
1388 1389 1390 0
123 -1391 0
104 -1391 0
-123 -104 1391 0
-123 -1392 0
-104 -1392 0
123 104 1392 0
-1391 -1393 0
-1392 -1393 0
1391 1392 1393 0
-132 -1394 0
-133 -1394 0
132 133 1394 0
127 -1395 0
131 -1395 0
-127 -131 1395 0
-127 -1396 0
-131 -1396 0
127 131 1396 0
-1395 -1397 0
-1396 -1397 0
1395 1396 1397 0
137 -1398 0
100 -1398 0
-137 -100 1398 0
-137 -1399 0
-100 -1399 0
137 100 1399 0
-1398 -1400 0
-1399 -1400 0
1398 1399 1400 0
-147 -1401 0
148 -1401 0
147 -148 1401 0
50 -1402 0
26 -1402 0
-50 -26 1402 0
17 -1403 0
63 -1403 0
-17 -63 1403 0
161 -1404 0
-163 -1404 0
-161 163 1404 0
156 -1405 0
160 -1405 0
-156 -160 1405 0
-156 -1406 0
-160 -1406 0
156 160 1406 0
-1405 -1407 0
-1406 -1407 0
1405 1406 1407 0
-172 -1408 0
-173 -1408 0
172 173 1408 0
167 -1409 0
171 -1409 0
-167 -171 1409 0
-167 -1410 0
-171 -1410 0
167 171 1410 0
-1409 -1411 0
-1410 -1411 0
1409 1410 1411 0
152 -1412 0
177 -1412 0
-152 -177 1412 0
-152 -1413 0
-177 -1413 0
152 177 1413 0
-1412 -1414 0
-1413 -1414 0
1412 1413 1414 0
141 -1415 0
145 -1415 0
-141 -145 1415 0
-186 -1416 0
-187 -1416 0
186 187 1416 0
50 -1417 0
63 -1417 0
-50 -63 1417 0
-196 -1418 0
-197 -1418 0
196 197 1418 0
195 -1419 0
191 -1419 0
-195 -191 1419 0
-195 -1420 0
-191 -1420 0
195 191 1420 0
-1419 -1421 0
-1420 -1421 0
1419 1420 1421 0
185 -1422 0
181 -1422 0
-185 -181 1422 0
-206 -1423 0
-207 -1423 0
206 207 1423 0
215 -1424 0
211 -1424 0
-215 -211 1424 0
-215 -1425 0
-211 -1425 0
215 211 1425 0
-1424 -1426 0
-1425 -1426 0
1424 1425 1426 0
227 -1427 0
223 -1427 0
-227 -223 1427 0
-227 -1428 0
-223 -1428 0
227 223 1428 0
-1427 -1429 0
-1428 -1429 0
1427 1428 1429 0
-237 -1430 0
238 -1430 0
237 -238 1430 0
235 -1431 0
231 -1431 0
-235 -231 1431 0
-235 -1432 0
-231 -1432 0
235 231 1432 0
-1431 -1433 0
-1432 -1433 0
1431 1432 1433 0
263 -1434 0
259 -1434 0
-263 -259 1434 0
-263 -1435 0
-259 -1435 0
263 259 1435 0
-1434 -1436 0
-1435 -1436 0
1434 1435 1436 0
-272 -1437 0
-273 -1437 0
272 273 1437 0
271 -1438 0
267 -1438 0
-271 -267 1438 0
-271 -1439 0
-267 -1439 0
271 267 1439 0
-1438 -1440 0
-1439 -1440 0
1438 1439 1440 0
255 -1441 0
277 -1441 0
-255 -277 1441 0
-255 -1442 0
-277 -1442 0
255 277 1442 0
-1441 -1443 0
-1442 -1443 0
1441 1442 1443 0
242 -1444 0
248 -1444 0
-242 -248 1444 0
-287 -1445 0
288 -1445 0
287 -288 1445 0
285 -1446 0
281 -1446 0
-285 -281 1446 0
-285 -1447 0
-281 -1447 0
285 281 1447 0
-1446 -1448 0
-1447 -1448 0
1446 1447 1448 0
292 -1449 0
251 -1449 0
-292 -251 1449 0
-292 -1450 0
-251 -1450 0
292 251 1450 0
-1449 -1451 0
-1450 -1451 0
1449 1450 1451 0
-308 -1452 0
-313 -1452 0
308 313 1452 0
-318 -1453 0
-319 -1453 0
318 319 1453 0
312 -1454 0
317 -1454 0
-312 -317 1454 0
-312 -1455 0
-317 -1455 0
312 317 1455 0
-1454 -1456 0
-1455 -1456 0
1454 1455 1456 0
304 -1457 0
323 -1457 0
-304 -323 1457 0
-304 -1458 0
-323 -1458 0
304 323 1458 0
-1457 -1459 0
-1458 -1459 0
1457 1458 1459 0
-332 -1460 0
-333 -1460 0
332 333 1460 0
327 -1461 0
331 -1461 0
-327 -331 1461 0
-327 -1462 0
-331 -1462 0
327 331 1462 0
-1461 -1463 0
-1462 -1463 0
1461 1462 1463 0
-337 -1464 0
-300 -1464 0
337 300 1464 0
-347 -1465 0
348 -1465 0
347 -348 1465 0
361 -1466 0
-363 -1466 0
-361 363 1466 0
360 -1467 0
356 -1467 0
-360 -356 1467 0
-360 -1468 0
-356 -1468 0
360 356 1468 0
-1467 -1469 0
-1468 -1469 0
1467 1468 1469 0
-372 -1470 0
-373 -1470 0
372 373 1470 0
371 -1471 0
367 -1471 0
-371 -367 1471 0
-371 -1472 0
-367 -1472 0
371 367 1472 0
-1471 -1473 0
-1472 -1473 0
1471 1472 1473 0
377 -1474 0
352 -1474 0
-377 -352 1474 0
-377 -1475 0
-352 -1475 0
377 352 1475 0
-1474 -1476 0
-1475 -1476 0
1474 1475 1476 0
341 -1477 0
345 -1477 0
-341 -345 1477 0
337 -1478 0
300 -1478 0
-337 -300 1478 0
-386 -1479 0
-387 -1479 0
386 387 1479 0
-396 -1480 0
-397 -1480 0
396 397 1480 0
391 -1481 0
395 -1481 0
-391 -395 1481 0
-391 -1482 0
-395 -1482 0
391 395 1482 0
-1481 -1483 0
-1482 -1483 0
1481 1482 1483 0
385 -1484 0
381 -1484 0
-385 -381 1484 0
-406 -1485 0
-407 -1485 0
406 407 1485 0
2 -1486 0
8 -1486 0
-2 -8 1486 0
-219 -1487 0
-414 -1487 0
219 414 1487 0
-12 -1488 0
-416 -1488 0
12 416 1488 0
-246 -1489 0
-420 -1489 0
246 420 1489 0
-45 -1490 0
-422 -1490 0
45 422 1490 0
-296 -1491 0
-426 -1491 0
296 426 1491 0
-96 -1492 0
-428 -1492 0
96 428 1492 0
-341 -1493 0
-345 -1493 0
341 345 1493 0
-1477 -1494 0
-1493 -1494 0
1477 1493 1494 0
-141 -1495 0
-145 -1495 0
141 145 1495 0
-1415 -1496 0
-1495 -1496 0
1415 1495 1496 0
-385 -1497 0
-381 -1497 0
385 381 1497 0
-1484 -1498 0
-1497 -1498 0
1484 1497 1498 0
-185 -1499 0
-181 -1499 0
185 181 1499 0
-1422 -1500 0
-1499 -1500 0
1422 1499 1500 0
401 -1501 0
405 -1501 0
-401 -405 1501 0
-401 -1502 0
-405 -1502 0
401 405 1502 0
-1501 -1503 0
-1502 -1503 0
1501 1502 1503 0
205 -1504 0
201 -1504 0
-205 -201 1504 0
-205 -1505 0
-201 -1505 0
205 201 1505 0
-1504 -1506 0
-1505 -1506 0
1504 1505 1506 0
-444 -1507 0
-445 -1507 0
444 445 1507 0
-447 -1508 0
-448 -1508 0
447 448 1508 0
